[VALIDATOR STDOUT]
Checking plan: /home/jfan5/Safety-gen/runs/benchmark/optic/blocksworld_20260205_112402/blocksworld/optic_results/bw_ops3_n15_seed15001.plan
Plan executed successfully - checking goal
Plan valid
Final value: 64 

Successful plans:
Value: 64
 /home/jfan5/Safety-gen/runs/benchmark/optic/blocksworld_20260205_112402/blocksworld/optic_results/bw_ops3_n15_seed15001.plan 64
